
Gurobi 9.1.2 (linux64, gurobi_cl) logging started Mon Jan 17 14:31:34 2022

Academic license - for non-commercial use only - expires 2022-03-17
Using license file /opt/gurobi912/gurobi.lic
Set parameter LogFile to value gurobi.log
